c FILE /home/rafael/Documents/HappySet/MIHS/inputs/happygen/output/graph_scale_free_k2_p0.4_v100_20241127_083758.txt
c SOURCE This is a scale-free graph formed for the happy graph colouring problem.
c DESCRIPTION It was generated using the problem generator of Rhyd Lewis
c
c GRAPH STATS
c Seed                             = -1801738656
c Number of Nodes                  = 100
c Number of colours k              = 2
c Number of pre-assignments        = 40
c Number of links per new node     = 5
c Density                          = 0.0979798
c 
c The degrees of nodes 1 to 100, respectively, are as follows 
c [43, 38, 35, 31, 28, 27, 23, 23, 19, 18, 18, 18, 17, 16, 15, 15, 14, 14, 12, 12, 12, 11, 11, 11, 10, 10, 
c  10, 10, 9, 9, 9, 9, 9, 9, 9, 9, 8, 8, 8, 8, 8, 8, 8, 8, 7, 7, 7, 7, 7, 7, 7, 
c  7, 6, 6, 6, 6, 6, 6, 6, 6, 6, 6, 6, 6, 6, 6, 6, 6, 6, 5, 5, 5, 5, 5, 5, 5, 
c  5, 5, 5, 5, 5, 5, 5, 5, 5, 5, 5, 5, 5, 5, 5, 5, 5, 5, 5, 5, 5, 5, 5, 5] 
c  
p edge 100 485 2
e 1 2
e 1 3
e 1 4
e 1 5
e 1 6
e 1 7
e 1 9
e 1 10
e 1 12
e 1 13
e 1 14
e 1 16
e 1 21
e 1 22
e 1 24
e 1 27
e 1 28
e 1 29
e 1 32
e 1 37
e 1 38
e 1 39
e 1 40
e 1 42
e 1 43
e 1 44
e 1 45
e 1 54
e 1 57
e 1 59
e 1 61
e 1 62
e 1 63
e 1 67
e 1 69
e 1 71
e 1 72
e 1 73
e 1 75
e 1 77
e 1 83
e 1 84
e 1 89
e 2 3
e 2 4
e 2 5
e 2 7
e 2 8
e 2 9
e 2 11
e 2 13
e 2 15
e 2 19
e 2 20
e 2 21
e 2 22
e 2 23
e 2 24
e 2 25
e 2 26
e 2 28
e 2 29
e 2 34
e 2 37
e 2 38
e 2 40
e 2 42
e 2 45
e 2 46
e 2 49
e 2 50
e 2 52
e 2 53
e 2 73
e 2 74
e 2 75
e 2 83
e 2 84
e 2 93
e 2 95
e 3 4
e 3 5
e 3 7
e 3 9
e 3 10
e 3 12
e 3 13
e 3 17
e 3 22
e 3 25
e 3 26
e 3 31
e 3 32
e 3 34
e 3 36
e 3 40
e 3 41
e 3 46
e 3 48
e 3 50
e 3 55
e 3 56
e 3 57
e 3 60
e 3 66
e 3 69
e 3 71
e 3 73
e 3 76
e 3 79
e 3 88
e 3 95
e 3 99
e 4 5
e 4 7
e 4 9
e 4 10
e 4 13
e 4 15
e 4 23
e 4 24
e 4 26
e 4 27
e 4 33
e 4 37
e 4 46
e 4 47
e 4 51
e 4 59
e 4 61
e 4 70
e 4 72
e 4 79
e 4 80
e 4 81
e 4 84
e 4 90
e 4 93
e 4 94
e 4 99
e 4 100
e 5 7
e 5 15
e 5 16
e 5 17
e 5 20
e 5 21
e 5 22
e 5 25
e 5 26
e 5 30
e 5 36
e 5 37
e 5 38
e 5 39
e 5 43
e 5 44
e 5 45
e 5 49
e 5 54
e 5 60
e 5 62
e 5 91
e 5 98
e 5 99
e 6 7
e 6 9
e 6 11
e 6 12
e 6 13
e 6 14
e 6 17
e 6 18
e 6 21
e 6 23
e 6 27
e 6 28
e 6 30
e 6 37
e 6 45
e 6 53
e 6 54
e 6 55
e 6 66
e 6 69
e 6 71
e 6 76
e 6 79
e 6 81
e 6 91
e 6 94
e 7 8
e 7 10
e 7 11
e 7 13
e 7 14
e 7 18
e 7 19
e 7 22
e 7 28
e 7 31
e 7 35
e 7 37
e 7 43
e 7 70
e 7 82
e 7 83
e 7 92
e 8 10
e 8 11
e 8 16
e 8 32
e 8 33
e 8 35
e 8 39
e 8 45
e 8 46
e 8 47
e 8 49
e 8 54
e 8 56
e 8 60
e 8 64
e 8 69
e 8 70
e 8 75
e 8 78
e 8 93
e 8 96
e 9 11
e 9 13
e 9 14
e 9 15
e 9 19
e 9 29
e 9 30
e 9 33
e 9 39
e 9 59
e 9 78
e 9 83
e 9 90
e 9 93
e 10 11
e 10 13
e 10 19
e 10 27
e 10 38
e 10 39
e 10 58
e 10 62
e 10 65
e 10 76
e 10 78
e 10 80
e 10 85
e 11 14
e 11 17
e 11 24
e 11 36
e 11 39
e 11 44
e 11 50
e 11 54
e 11 57
e 11 87
e 11 88
e 11 92
e 12 13
e 12 30
e 12 32
e 12 36
e 12 38
e 12 44
e 12 46
e 12 51
e 12 56
e 12 59
e 12 65
e 12 75
e 12 82
e 12 94
e 12 95
e 13 15
e 13 18
e 13 25
e 13 27
e 13 38
e 13 80
e 13 88
e 13 92
e 14 16
e 14 17
e 14 25
e 14 26
e 14 30
e 14 42
e 14 47
e 14 48
e 14 70
e 14 79
e 14 88
e 15 29
e 15 31
e 15 50
e 15 53
e 15 55
e 15 57
e 15 76
e 15 78
e 15 86
e 15 87
e 16 37
e 16 52
e 16 55
e 16 56
e 16 58
e 16 68
e 16 71
e 16 81
e 16 88
e 16 89
e 16 96
e 17 18
e 17 19
e 17 20
e 17 33
e 17 48
e 17 49
e 17 55
e 17 65
e 17 96
e 18 20
e 18 23
e 18 26
e 18 44
e 18 57
e 18 73
e 18 74
e 18 78
e 18 90
e 18 92
e 19 32
e 19 48
e 19 51
e 19 53
e 19 66
e 19 68
e 19 71
e 20 27
e 20 51
e 20 58
e 20 60
e 20 61
e 20 63
e 20 89
e 20 90
e 21 40
e 21 43
e 21 59
e 21 73
e 21 77
e 21 82
e 21 86
e 21 99
e 22 28
e 22 29
e 22 34
e 22 35
e 22 72
e 22 74
e 23 29
e 23 47
e 23 49
e 23 64
e 23 72
e 23 74
e 23 79
e 24 29
e 24 48
e 24 67
e 24 77
e 24 95
e 24 97
e 24 98
e 25 53
e 25 63
e 25 65
e 25 86
e 25 87
e 26 40
e 26 47
e 26 72
e 26 91
e 27 41
e 27 56
e 27 61
e 27 74
e 28 31
e 28 35
e 28 42
e 28 63
e 28 97
e 29 52
e 29 89
e 30 36
e 30 61
e 30 67
e 30 100
e 31 56
e 31 58
e 31 75
e 31 81
e 31 96
e 32 43
e 32 77
e 32 82
e 32 84
e 33 42
e 33 51
e 33 52
e 33 82
e 33 97
e 34 48
e 34 58
e 34 81
e 34 83
e 34 85
e 34 98
e 35 43
e 35 69
e 35 89
e 35 91
e 35 100
e 36 63
e 36 92
e 36 94
e 36 100
e 37 68
e 38 40
e 38 41
e 39 65
e 39 96
e 40 41
e 40 85
e 41 45
e 41 64
e 41 80
e 41 85
e 42 57
e 42 58
e 42 84
e 43 76
e 43 80
e 44 52
e 44 87
e 44 95
e 45 64
e 46 70
e 46 77
e 47 60
e 47 97
e 48 67
e 49 62
e 49 97
e 50 53
e 50 87
e 50 100
e 51 86
e 51 90
e 52 68
e 52 94
e 54 66
e 55 62
e 59 98
e 60 66
e 61 98
e 62 86
e 63 64
e 64 68
e 65 67
e 66 85
e 67 91
e 68 93
e 69 99
n 9 1
n 11 1
n 18 1
n 19 1
n 25 2
n 29 1
n 31 2
n 32 1
n 34 1
n 37 1
n 44 1
n 45 1
n 46 1
n 47 2
n 54 1
n 57 1
n 59 1
n 62 2
n 63 2
n 65 2
n 66 1
n 68 1
n 72 2
n 73 1
n 76 2
n 78 1
n 79 2
n 80 1
n 88 1
n 89 1
n 90 1
n 91 2
n 92 1
n 93 1
n 94 2
n 95 1
n 96 2
n 97 2
n 98 1
n 99 2
